param n := 120;
param c := 150;
param : V : p w :=
   0	  71	  61
   1	 106	  96
   2	 101	  91
   3	  47	  37
   4	  63	  53
   5	  86	  76
   6	  60	  50
   7	  76	  66
   8	  80	  70
   9	  97	  87
  10	 102	  92
  11	  45	  35
  12	  63	  53
  13	 105	  95
  14	  57	  47
  15	  66	  56
  16	  65	  55
  17	  96	  86
  18	  42	  32
  19	 109	  99
  20	  93	  83
  21	  98	  88
  22	  51	  41
  23	  73	  63
  24	  87	  77
  25	  70	  60
  26	  76	  66
  27	  63	  53
  28	  89	  79
  29	  91	  81
  30	 106	  96
  31	  44	  34
  32	 109	  99
  33	  57	  47
  34	  84	  74
  35	  97	  87
  36	  54	  44
  37	  87	  77
  38	  62	  52
  39	 109	  99
  40	  79	  69
  41	  74	  64
  42	 104	  94
  43	  48	  38
  44	  79	  69
  45	  71	  61
  46	 108	  98
  47	  50	  40
  48	  94	  84
  49	  99	  89
  50	  59	  49
  51	  74	  64
  52	  63	  53
  53	  51	  41
  54	  44	  34
  55	  95	  85
  56	  45	  35
  57	  65	  55
  58	  71	  61
  59	  78	  68
  60	 110	 100
  61	  85	  75
  62	 108	  98
  63	  46	  36
  64	  54	  44
  65	  67	  57
  66	  34	  24
  67	  70	  60
  68	  55	  45
  69	  58	  48
  70	  70	  60
  71	 104	  94
  72	  81	  71
  73	  80	  70
  74	  74	  64
  75	  72	  62
  76	 103	  93
  77	  30	  20
  78	  79	  69
  79	  47	  37
  80	  73	  63
  81	  71	  61
  82	  36	  26
  83	  64	  54
  84	  99	  89
  85	  56	  46
  86	  64	  54
  87	  60	  50
  88	  42	  32
  89	  81	  71
  90	  72	  62
  91	  50	  40
  92	  36	  26
  93	  69	  59
  94	  72	  62
  95	  37	  27
  96	  70	  60
  97	  60	  50
  98	  84	  74
  99	  44	  34
 100	  50	  40
 101	  80	  70
 102	  66	  56
 103	  33	  23
 104	  76	  66
 105	  67	  57
 106	  53	  43
 107	  55	  45
 108	  75	  65
 109	  35	  25
 110	  92	  82
 111	  92	  82
 112	  47	  37
 113	  76	  66
 114	  57	  47
 115	  54	  44
 116	 104	  94
 117	  33	  23
 118	  34	  24
 119	  61	  51
;

set E :=
   0	   2
   0	   3
   0	   4
   0	   6
   0	   8
   0	  11
   0	  12
   0	  13
   0	  15
   0	  18
   0	  23
   0	  25
   0	  26
   0	  27
   0	  30
   0	  33
   0	  34
   0	  35
   0	  36
   0	  37
   0	  38
   0	  39
   0	  40
   0	  41
   0	  42
   0	  43
   0	  44
   0	  45
   0	  47
   0	  49
   0	  50
   0	  51
   0	  53
   0	  54
   0	  56
   0	  59
   0	  61
   0	  62
   0	  64
   0	  66
   0	  67
   0	  68
   0	  69
   0	  70
   0	  71
   0	  74
   0	  75
   0	  80
   0	  81
   0	  83
   0	  84
   0	  85
   0	  86
   0	  87
   0	  88
   0	  89
   0	  91
   0	  98
   0	  99
   0	 100
   0	 101
   0	 102
   0	 103
   0	 105
   0	 107
   0	 109
   0	 110
   0	 111
   0	 113
   0	 115
   0	 117
   1	   3
   1	   7
   1	   8
   1	  10
   1	  11
   1	  12
   1	  14
   1	  15
   1	  17
   1	  19
   1	  21
   1	  22
   1	  24
   1	  25
   1	  26
   1	  27
   1	  29
   1	  31
   1	  32
   1	  34
   1	  35
   1	  38
   1	  39
   1	  40
   1	  43
   1	  45
   1	  46
   1	  49
   1	  54
   1	  57
   1	  58
   1	  59
   1	  64
   1	  65
   1	  66
   1	  69
   1	  71
   1	  74
   1	  75
   1	  77
   1	  78
   1	  79
   1	  80
   1	  82
   1	  83
   1	  84
   1	  88
   1	  93
   1	  94
   1	  96
   1	  98
   1	  99
   1	 103
   1	 104
   1	 105
   1	 107
   1	 110
   1	 112
   1	 113
   1	 114
   1	 115
   1	 118
   1	 119
   2	   4
   2	   6
   2	   8
   2	   9
   2	  10
   2	  13
   2	  15
   2	  17
   2	  19
   2	  21
   2	  22
   2	  23
   2	  24
   2	  32
   2	  33
   2	  34
   2	  38
   2	  43
   2	  44
   2	  45
   2	  51
   2	  52
   2	  55
   2	  57
   2	  58
   2	  59
   2	  60
   2	  61
   2	  63
   2	  65
   2	  67
   2	  69
   2	  73
   2	  74
   2	  78
   2	  79
   2	  82
   2	  83
   2	  84
   2	  86
   2	  87
   2	  91
   2	  92
   2	  93
   2	  94
   2	  96
   2	  97
   2	  98
   2	  99
   2	 101
   2	 106
   2	 112
   2	 116
   2	 118
   2	 119
   3	   4
   3	   7
   3	  10
   3	  13
   3	  14
   3	  15
   3	  16
   3	  18
   3	  19
   3	  21
   3	  23
   3	  24
   3	  26
   3	  29
   3	  35
   3	  45
   3	  49
   3	  50
   3	  51
   3	  57
   3	  60
   3	  63
   3	  65
   3	  66
   3	  69
   3	  71
   3	  73
   3	  77
   3	  78
   3	  79
   3	  80
   3	  83
   3	  87
   3	  88
   3	  89
   3	  91
   3	  92
   3	  93
   3	  94
   3	  96
   3	  97
   3	  98
   3	 101
   3	 106
   3	 109
   3	 110
   3	 112
   3	 115
   3	 116
   3	 117
   3	 119
   4	   9
   4	  10
   4	  11
   4	  15
   4	  16
   4	  17
   4	  23
   4	  24
   4	  25
   4	  27
   4	  28
   4	  29
   4	  32
   4	  33
   4	  36
   4	  40
   4	  46
   4	  48
   4	  49
   4	  50
   4	  54
   4	  55
   4	  59
   4	  60
   4	  61
   4	  62
   4	  66
   4	  72
   4	  73
   4	  74
   4	  75
   4	  77
   4	  79
   4	  80
   4	  81
   4	  82
   4	  83
   4	  88
   4	  93
   4	  98
   4	 100
   4	 101
   4	 102
   4	 103
   4	 104
   4	 105
   4	 106
   4	 107
   4	 108
   4	 109
   4	 116
   5	   6
   5	   7
   5	   9
   5	  11
   5	  14
   5	  15
   5	  16
   5	  17
   5	  18
   5	  19
   5	  21
   5	  22
   5	  25
   5	  26
   5	  28
   5	  32
   5	  34
   5	  39
   5	  41
   5	  42
   5	  43
   5	  44
   5	  45
   5	  50
   5	  51
   5	  52
   5	  55
   5	  57
   5	  58
   5	  61
   5	  62
   5	  64
   5	  70
   5	  71
   5	  74
   5	  75
   5	  76
   5	  79
   5	  81
   5	  82
   5	  83
   5	  84
   5	  85
   5	  87
   5	  88
   5	  95
   5	  98
   5	 100
   5	 102
   5	 104
   5	 107
   5	 109
   5	 110
   5	 118
   5	 119
   6	   7
   6	   9
   6	  11
   6	  12
   6	  15
   6	  16
   6	  22
   6	  23
   6	  28
   6	  30
   6	  31
   6	  38
   6	  39
   6	  41
   6	  42
   6	  44
   6	  50
   6	  52
   6	  55
   6	  56
   6	  64
   6	  65
   6	  66
   6	  67
   6	  69
   6	  74
   6	  78
   6	  82
   6	  86
   6	  91
   6	  95
   6	  96
   6	 102
   6	 103
   6	 104
   6	 111
   6	 112
   6	 113
   6	 114
   6	 116
   6	 117
   6	 118
   7	   8
   7	   9
   7	  12
   7	  14
   7	  18
   7	  21
   7	  23
   7	  26
   7	  27
   7	  29
   7	  31
   7	  34
   7	  37
   7	  39
   7	  41
   7	  42
   7	  45
   7	  46
   7	  47
   7	  48
   7	  50
   7	  53
   7	  54
   7	  55
   7	  56
   7	  57
   7	  61
   7	  63
   7	  66
   7	  68
   7	  69
   7	  70
   7	  72
   7	  74
   7	  78
   7	  79
   7	  83
   7	  84
   7	  86
   7	  87
   7	  89
   7	  91
   7	  92
   7	  94
   7	  96
   7	  97
   7	  99
   7	 103
   7	 108
   7	 109
   7	 110
   7	 112
   7	 116
   7	 118
   8	   9
   8	  10
   8	  15
   8	  19
   8	  20
   8	  21
   8	  23
   8	  24
   8	  25
   8	  26
   8	  27
   8	  28
   8	  29
   8	  31
   8	  32
   8	  33
   8	  35
   8	  37
   8	  39
   8	  42
   8	  45
   8	  46
   8	  47
   8	  48
   8	  51
   8	  52
   8	  56
   8	  57
   8	  59
   8	  60
   8	  64
   8	  65
   8	  66
   8	  67
   8	  68
   8	  72
   8	  74
   8	  75
   8	  80
   8	  81
   8	  82
   8	  84
   8	  87
   8	  93
   8	  94
   8	  95
   8	  97
   8	  98
   8	  99
   8	 102
   8	 104
   8	 105
   8	 107
   8	 108
   8	 109
   8	 110
   8	 113
   8	 114
   8	 117
   8	 119
   9	  14
   9	  18
   9	  24
   9	  25
   9	  26
   9	  27
   9	  28
   9	  29
   9	  30
   9	  38
   9	  39
   9	  40
   9	  41
   9	  43
   9	  44
   9	  45
   9	  46
   9	  47
   9	  48
   9	  50
   9	  51
   9	  53
   9	  58
   9	  59
   9	  64
   9	  67
   9	  68
   9	  69
   9	  70
   9	  71
   9	  72
   9	  74
   9	  78
   9	  81
   9	  82
   9	  83
   9	  85
   9	  86
   9	  87
   9	  90
   9	  92
   9	  93
   9	  97
   9	  98
   9	 101
   9	 105
   9	 108
   9	 109
   9	 110
   9	 114
  10	  11
  10	  12
  10	  15
  10	  17
  10	  18
  10	  19
  10	  20
  10	  22
  10	  24
  10	  27
  10	  30
  10	  31
  10	  34
  10	  35
  10	  36
  10	  38
  10	  39
  10	  41
  10	  42
  10	  43
  10	  45
  10	  46
  10	  47
  10	  49
  10	  50
  10	  51
  10	  55
  10	  57
  10	  59
  10	  62
  10	  63
  10	  64
  10	  67
  10	  68
  10	  69
  10	  70
  10	  75
  10	  76
  10	  77
  10	  78
  10	  79
  10	  80
  10	  83
  10	  84
  10	  86
  10	  87
  10	  88
  10	  92
  10	  94
  10	  95
  10	  96
  10	  97
  10	  99
  10	 100
  10	 106
  10	 108
  10	 110
  10	 111
  10	 112
  10	 113
  10	 115
  10	 116
  10	 117
  10	 118
  10	 119
  11	  12
  11	  13
  11	  15
  11	  18
  11	  20
  11	  21
  11	  22
  11	  25
  11	  26
  11	  30
  11	  33
  11	  34
  11	  36
  11	  37
  11	  40
  11	  43
  11	  44
  11	  48
  11	  49
  11	  54
  11	  57
  11	  59
  11	  60
  11	  67
  11	  69
  11	  71
  11	  72
  11	  73
  11	  77
  11	  79
  11	  82
  11	  87
  11	  89
  11	  91
  11	  93
  11	  97
  11	  99
  11	 100
  11	 104
  11	 105
  11	 106
  11	 108
  11	 109
  11	 110
  11	 111
  11	 114
  11	 117
  11	 118
  11	 119
  12	  14
  12	  15
  12	  20
  12	  22
  12	  23
  12	  27
  12	  28
  12	  29
  12	  31
  12	  35
  12	  37
  12	  38
  12	  42
  12	  45
  12	  46
  12	  48
  12	  49
  12	  52
  12	  54
  12	  59
  12	  62
  12	  64
  12	  65
  12	  67
  12	  69
  12	  75
  12	  76
  12	  77
  12	  78
  12	  79
  12	  84
  12	  86
  12	  87
  12	  91
  12	  92
  12	  95
  12	  96
  12	 100
  12	 101
  12	 108
  12	 109
  12	 115
  12	 117
  12	 119
  13	  14
  13	  16
  13	  17
  13	  18
  13	  20
  13	  21
  13	  22
  13	  27
  13	  29
  13	  30
  13	  32
  13	  33
  13	  34
  13	  35
  13	  37
  13	  40
  13	  43
  13	  44
  13	  45
  13	  50
  13	  52
  13	  58
  13	  60
  13	  61
  13	  62
  13	  63
  13	  64
  13	  65
  13	  66
  13	  69
  13	  74
  13	  76
  13	  78
  13	  80
  13	  81
  13	  83
  13	  84
  13	  85
  13	  88
  13	  89
  13	  97
  13	  98
  13	  99
  13	 103
  13	 104
  13	 105
  13	 107
  13	 110
  13	 115
  13	 116
  13	 117
  13	 118
  14	  16
  14	  18
  14	  19
  14	  22
  14	  24
  14	  26
  14	  28
  14	  29
  14	  32
  14	  34
  14	  35
  14	  39
  14	  40
  14	  42
  14	  44
  14	  46
  14	  47
  14	  48
  14	  51
  14	  52
  14	  54
  14	  56
  14	  59
  14	  60
  14	  61
  14	  62
  14	  64
  14	  65
  14	  66
  14	  68
  14	  69
  14	  71
  14	  72
  14	  75
  14	  77
  14	  79
  14	  82
  14	  83
  14	  84
  14	  86
  14	  87
  14	  89
  14	  90
  14	  92
  14	  94
  14	 103
  14	 106
  14	 107
  14	 110
  14	 111
  14	 112
  14	 115
  14	 116
  14	 117
  15	  17
  15	  18
  15	  20
  15	  25
  15	  26
  15	  28
  15	  30
  15	  31
  15	  33
  15	  34
  15	  36
  15	  37
  15	  39
  15	  41
  15	  44
  15	  47
  15	  49
  15	  50
  15	  51
  15	  52
  15	  58
  15	  61
  15	  65
  15	  67
  15	  68
  15	  69
  15	  71
  15	  73
  15	  79
  15	  80
  15	  81
  15	  84
  15	  90
  15	  91
  15	  92
  15	  93
  15	  96
  15	  97
  15	  98
  15	  99
  15	 107
  15	 108
  15	 109
  15	 113
  15	 115
  15	 117
  15	 118
  15	 119
  16	  17
  16	  18
  16	  19
  16	  23
  16	  24
  16	  27
  16	  29
  16	  30
  16	  32
  16	  35
  16	  36
  16	  39
  16	  43
  16	  44
  16	  46
  16	  48
  16	  49
  16	  50
  16	  52
  16	  54
  16	  57
  16	  59
  16	  60
  16	  63
  16	  67
  16	  68
  16	  73
  16	  76
  16	  78
  16	  79
  16	  80
  16	  81
  16	  83
  16	  84
  16	  87
  16	  88
  16	  89
  16	  91
  16	  92
  16	  93
  16	 102
  16	 104
  16	 105
  16	 107
  16	 108
  16	 110
  16	 114
  16	 115
  17	  18
  17	  19
  17	  20
  17	  21
  17	  23
  17	  24
  17	  25
  17	  26
  17	  27
  17	  28
  17	  29
  17	  31
  17	  32
  17	  35
  17	  36
  17	  37
  17	  38
  17	  41
  17	  42
  17	  43
  17	  49
  17	  50
  17	  52
  17	  53
  17	  56
  17	  57
  17	  59
  17	  63
  17	  64
  17	  65
  17	  66
  17	  67
  17	  69
  17	  73
  17	  79
  17	  82
  17	  84
  17	  85
  17	  86
  17	  87
  17	  88
  17	  91
  17	  93
  17	 101
  17	 103
  17	 104
  17	 105
  17	 106
  17	 108
  17	 109
  17	 114
  18	  19
  18	  23
  18	  26
  18	  27
  18	  28
  18	  29
  18	  30
  18	  33
  18	  34
  18	  40
  18	  41
  18	  42
  18	  43
  18	  44
  18	  45
  18	  47
  18	  48
  18	  49
  18	  50
  18	  51
  18	  54
  18	  55
  18	  56
  18	  59
  18	  60
  18	  61
  18	  62
  18	  65
  18	  66
  18	  73
  18	  74
  18	  76
  18	  79
  18	  80
  18	  81
  18	  85
  18	  86
  18	  87
  18	  88
  18	  89
  18	  93
  18	  96
  18	  98
  18	 100
  18	 101
  18	 107
  18	 109
  18	 110
  18	 112
  18	 113
  18	 115
  18	 119
  19	  21
  19	  26
  19	  28
  19	  29
  19	  30
  19	  31
  19	  32
  19	  33
  19	  35
  19	  37
  19	  41
  19	  43
  19	  47
  19	  48
  19	  49
  19	  50
  19	  55
  19	  63
  19	  65
  19	  66
  19	  67
  19	  68
  19	  71
  19	  73
  19	  74
  19	  75
  19	  76
  19	  77
  19	  79
  19	  81
  19	  83
  19	  85
  19	  87
  19	  90
  19	  92
  19	  94
  19	  95
  19	 102
  19	 105
  19	 106
  19	 107
  19	 108
  19	 109
  19	 111
  19	 113
  19	 114
  20	  23
  20	  25
  20	  27
  20	  28
  20	  29
  20	  30
  20	  33
  20	  37
  20	  40
  20	  42
  20	  44
  20	  46
  20	  50
  20	  51
  20	  53
  20	  54
  20	  55
  20	  56
  20	  57
  20	  60
  20	  62
  20	  63
  20	  64
  20	  69
  20	  72
  20	  73
  20	  75
  20	  76
  20	  77
  20	  80
  20	  81
  20	  82
  20	  84
  20	  85
  20	  86
  20	  87
  20	  91
  20	  95
  20	  96
  20	  98
  20	  99
  20	 100
  20	 108
  20	 109
  20	 110
  20	 111
  20	 113
  20	 115
  20	 118
  20	 119
  21	  22
  21	  24
  21	  25
  21	  26
  21	  27
  21	  28
  21	  31
  21	  33
  21	  34
  21	  36
  21	  39
  21	  41
  21	  45
  21	  46
  21	  47
  21	  49
  21	  53
  21	  54
  21	  55
  21	  56
  21	  58
  21	  59
  21	  63
  21	  65
  21	  66
  21	  67
  21	  69
  21	  72
  21	  74
  21	  76
  21	  77
  21	  78
  21	  81
  21	  84
  21	  85
  21	  86
  21	  87
  21	  88
  21	  89
  21	  90
  21	  91
  21	  92
  21	  95
  21	  99
  21	 100
  21	 102
  21	 103
  21	 104
  21	 106
  21	 107
  21	 109
  21	 110
  21	 111
  21	 114
  21	 117
  21	 118
  22	  23
  22	  26
  22	  28
  22	  29
  22	  32
  22	  34
  22	  36
  22	  37
  22	  38
  22	  39
  22	  40
  22	  45
  22	  46
  22	  47
  22	  48
  22	  49
  22	  50
  22	  51
  22	  52
  22	  53
  22	  54
  22	  55
  22	  56
  22	  58
  22	  59
  22	  61
  22	  63
  22	  66
  22	  68
  22	  69
  22	  70
  22	  72
  22	  73
  22	  75
  22	  77
  22	  79
  22	  80
  22	  83
  22	  84
  22	  85
  22	  90
  22	  92
  22	  93
  22	  94
  22	  97
  22	 100
  22	 103
  22	 108
  22	 109
  22	 110
  22	 112
  22	 115
  22	 118
  23	  24
  23	  26
  23	  27
  23	  30
  23	  32
  23	  34
  23	  35
  23	  38
  23	  40
  23	  42
  23	  44
  23	  45
  23	  48
  23	  52
  23	  54
  23	  57
  23	  59
  23	  66
  23	  71
  23	  73
  23	  74
  23	  75
  23	  76
  23	  79
  23	  84
  23	  85
  23	  86
  23	  89
  23	  90
  23	  91
  23	  92
  23	  96
  23	  97
  23	  99
  23	 102
  23	 103
  23	 104
  23	 105
  23	 108
  23	 110
  23	 113
  23	 114
  23	 117
  23	 118
  23	 119
  24	  25
  24	  26
  24	  27
  24	  28
  24	  30
  24	  33
  24	  36
  24	  40
  24	  41
  24	  43
  24	  44
  24	  45
  24	  47
  24	  48
  24	  49
  24	  56
  24	  60
  24	  62
  24	  63
  24	  64
  24	  67
  24	  69
  24	  70
  24	  72
  24	  74
  24	  75
  24	  77
  24	  78
  24	  79
  24	  83
  24	  86
  24	  87
  24	  88
  24	  89
  24	  92
  24	  93
  24	  94
  24	  95
  24	  96
  24	  97
  24	  98
  24	 102
  24	 103
  24	 104
  24	 105
  24	 106
  24	 108
  24	 109
  24	 111
  24	 112
  24	 115
  24	 119
  25	  27
  25	  31
  25	  32
  25	  33
  25	  35
  25	  40
  25	  41
  25	  43
  25	  46
  25	  48
  25	  50
  25	  53
  25	  54
  25	  56
  25	  57
  25	  58
  25	  59
  25	  60
  25	  62
  25	  64
  25	  66
  25	  67
  25	  68
  25	  70
  25	  73
  25	  74
  25	  75
  25	  77
  25	  82
  25	  83
  25	  84
  25	  86
  25	  88
  25	  89
  25	  90
  25	  91
  25	  95
  25	 100
  25	 101
  25	 106
  25	 108
  25	 109
  25	 111
  25	 112
  25	 113
  25	 114
  25	 117
  25	 119
  26	  28
  26	  29
  26	  30
  26	  32
  26	  33
  26	  38
  26	  45
  26	  47
  26	  48
  26	  49
  26	  50
  26	  53
  26	  54
  26	  56
  26	  59
  26	  60
  26	  63
  26	  69
  26	  71
  26	  75
  26	  77
  26	  79
  26	  82
  26	  85
  26	  92
  26	  93
  26	  95
  26	  98
  26	  99
  26	 100
  26	 101
  26	 102
  26	 104
  26	 105
  26	 108
  26	 109
  26	 110
  26	 111
  26	 116
  26	 117
  26	 118
  27	  28
  27	  30
  27	  31
  27	  32
  27	  33
  27	  34
  27	  36
  27	  38
  27	  40
  27	  41
  27	  43
  27	  44
  27	  45
  27	  46
  27	  47
  27	  49
  27	  50
  27	  53
  27	  55
  27	  56
  27	  60
  27	  62
  27	  64
  27	  67
  27	  71
  27	  72
  27	  73
  27	  76
  27	  78
  27	  80
  27	  82
  27	  84
  27	  88
  27	  89
  27	  91
  27	  92
  27	  98
  27	 100
  27	 101
  27	 102
  27	 104
  27	 105
  27	 106
  27	 107
  27	 111
  27	 113
  27	 116
  28	  30
  28	  31
  28	  32
  28	  34
  28	  35
  28	  37
  28	  40
  28	  42
  28	  44
  28	  46
  28	  50
  28	  51
  28	  52
  28	  53
  28	  54
  28	  55
  28	  59
  28	  60
  28	  65
  28	  66
  28	  67
  28	  68
  28	  69
  28	  70
  28	  72
  28	  75
  28	  76
  28	  77
  28	  81
  28	  82
  28	  83
  28	  85
  28	  86
  28	  88
  28	  89
  28	  90
  28	  95
  28	  96
  28	  99
  28	 100
  28	 102
  28	 103
  28	 104
  28	 105
  28	 107
  28	 108
  28	 112
  28	 113
  28	 118
  28	 119
  29	  30
  29	  34
  29	  36
  29	  39
  29	  42
  29	  47
  29	  48
  29	  49
  29	  51
  29	  53
  29	  58
  29	  60
  29	  61
  29	  62
  29	  63
  29	  65
  29	  67
  29	  68
  29	  69
  29	  70
  29	  71
  29	  73
  29	  77
  29	  78
  29	  79
  29	  81
  29	  82
  29	  83
  29	  85
  29	  86
  29	  87
  29	  88
  29	  91
  29	  92
  29	  98
  29	 100
  29	 102
  29	 104
  29	 106
  29	 114
  29	 115
  29	 116
  29	 117
  29	 118
  30	  31
  30	  35
  30	  36
  30	  40
  30	  41
  30	  42
  30	  44
  30	  47
  30	  48
  30	  49
  30	  52
  30	  55
  30	  56
  30	  58
  30	  61
  30	  62
  30	  65
  30	  66
  30	  70
  30	  71
  30	  72
  30	  74
  30	  75
  30	  80
  30	  88
  30	  89
  30	  90
  30	  91
  30	  92
  30	  95
  30	  96
  30	  97
  30	  98
  30	  99
  30	 101
  30	 102
  30	 108
  30	 110
  30	 111
  30	 114
  30	 116
  30	 117
  30	 118
  30	 119
  31	  33
  31	  34
  31	  36
  31	  37
  31	  38
  31	  40
  31	  41
  31	  44
  31	  45
  31	  46
  31	  53
  31	  54
  31	  55
  31	  57
  31	  59
  31	  60
  31	  62
  31	  67
  31	  71
  31	  75
  31	  77
  31	  80
  31	  82
  31	  83
  31	  84
  31	  85
  31	  86
  31	  88
  31	  89
  31	  91
  31	  96
  31	  98
  31	 100
  31	 101
  31	 104
  31	 105
  31	 108
  31	 109
  31	 111
  31	 112
  31	 117
  31	 118
  32	  33
  32	  35
  32	  37
  32	  39
  32	  40
  32	  41
  32	  43
  32	  45
  32	  46
  32	  48
  32	  50
  32	  51
  32	  52
  32	  53
  32	  55
  32	  56
  32	  58
  32	  59
  32	  60
  32	  62
  32	  64
  32	  65
  32	  74
  32	  76
  32	  78
  32	  79
  32	  85
  32	  86
  32	  88
  32	  89
  32	  90
  32	  93
  32	  96
  32	  97
  32	  98
  32	  99
  32	 100
  32	 103
  32	 104
  32	 105
  32	 107
  32	 110
  32	 111
  32	 112
  32	 114
  32	 115
  32	 116
  32	 117
  32	 119
  33	  35
  33	  36
  33	  37
  33	  38
  33	  43
  33	  45
  33	  47
  33	  48
  33	  49
  33	  50
  33	  51
  33	  52
  33	  56
  33	  58
  33	  59
  33	  60
  33	  61
  33	  62
  33	  65
  33	  66
  33	  67
  33	  70
  33	  71
  33	  72
  33	  73
  33	  76
  33	  77
  33	  78
  33	  80
  33	  81
  33	  82
  33	  85
  33	  86
  33	  87
  33	  89
  33	  90
  33	  92
  33	  94
  33	  96
  33	  97
  33	  98
  33	 100
  33	 101
  33	 102
  33	 104
  33	 107
  33	 109
  33	 111
  33	 113
  33	 115
  33	 117
  33	 119
  34	  36
  34	  39
  34	  43
  34	  44
  34	  46
  34	  51
  34	  53
  34	  54
  34	  57
  34	  59
  34	  62
  34	  63
  34	  64
  34	  65
  34	  67
  34	  68
  34	  70
  34	  71
  34	  73
  34	  74
  34	  76
  34	  78
  34	  79
  34	  80
  34	  81
  34	  84
  34	  85
  34	  88
  34	  89
  34	  92
  34	  95
  34	  97
  34	 100
  34	 101
  34	 103
  34	 106
  34	 108
  34	 114
  34	 115
  34	 117
  34	 119
  35	  37
  35	  38
  35	  40
  35	  41
  35	  42
  35	  45
  35	  46
  35	  47
  35	  48
  35	  50
  35	  57
  35	  58
  35	  59
  35	  60
  35	  62
  35	  63
  35	  64
  35	  68
  35	  70
  35	  71
  35	  73
  35	  74
  35	  76
  35	  77
  35	  82
  35	  83
  35	  86
  35	  92
  35	  95
  35	  96
  35	 100
  35	 102
  35	 103
  35	 104
  35	 110
  35	 112
  35	 113
  35	 115
  35	 116
  35	 118
  36	  37
  36	  39
  36	  41
  36	  42
  36	  43
  36	  46
  36	  48
  36	  49
  36	  50
  36	  51
  36	  52
  36	  56
  36	  59
  36	  60
  36	  61
  36	  62
  36	  63
  36	  64
  36	  65
  36	  67
  36	  70
  36	  73
  36	  74
  36	  76
  36	  77
  36	  78
  36	  79
  36	  80
  36	  81
  36	  84
  36	  85
  36	  86
  36	  89
  36	  90
  36	  91
  36	  93
  36	  94
  36	  95
  36	  98
  36	 100
  36	 102
  36	 103
  36	 104
  36	 105
  36	 106
  36	 107
  36	 109
  36	 110
  36	 112
  36	 113
  36	 117
  36	 119
  37	  38
  37	  40
  37	  42
  37	  44
  37	  47
  37	  48
  37	  49
  37	  50
  37	  51
  37	  52
  37	  53
  37	  55
  37	  57
  37	  58
  37	  60
  37	  61
  37	  62
  37	  63
  37	  64
  37	  65
  37	  66
  37	  67
  37	  69
  37	  70
  37	  72
  37	  77
  37	  78
  37	  81
  37	  85
  37	  87
  37	  88
  37	  90
  37	  95
  37	  96
  37	  97
  37	  98
  37	  99
  37	 101
  37	 103
  37	 105
  37	 106
  37	 107
  37	 112
  37	 115
  37	 116
  37	 117
  38	  39
  38	  40
  38	  42
  38	  43
  38	  44
  38	  45
  38	  48
  38	  50
  38	  53
  38	  58
  38	  62
  38	  63
  38	  65
  38	  66
  38	  68
  38	  69
  38	  71
  38	  72
  38	  76
  38	  77
  38	  79
  38	  83
  38	  85
  38	  86
  38	  87
  38	  94
  38	  97
  38	  98
  38	  99
  38	 104
  38	 106
  38	 107
  38	 108
  38	 109
  38	 110
  38	 114
  38	 115
  38	 116
  38	 118
  38	 119
  39	  40
  39	  45
  39	  46
  39	  47
  39	  51
  39	  52
  39	  54
  39	  56
  39	  58
  39	  59
  39	  60
  39	  63
  39	  64
  39	  65
  39	  66
  39	  67
  39	  70
  39	  72
  39	  74
  39	  82
  39	  84
  39	  85
  39	  86
  39	  87
  39	  89
  39	  91
  39	  92
  39	  94
  39	  95
  39	  96
  39	  99
  39	 100
  39	 101
  39	 103
  39	 104
  39	 105
  39	 107
  39	 112
  39	 113
  39	 115
  39	 117
  40	  41
  40	  42
  40	  43
  40	  45
  40	  46
  40	  47
  40	  48
  40	  51
  40	  52
  40	  53
  40	  54
  40	  57
  40	  59
  40	  61
  40	  62
  40	  65
  40	  67
  40	  71
  40	  72
  40	  73
  40	  74
  40	  76
  40	  77
  40	  80
  40	  84
  40	  89
  40	  90
  40	  92
  40	  93
  40	  94
  40	  95
  40	  96
  40	  97
  40	 104
  40	 105
  40	 107
  40	 112
  40	 113
  40	 114
  40	 117
  41	  44
  41	  45
  41	  46
  41	  47
  41	  51
  41	  54
  41	  55
  41	  60
  41	  62
  41	  63
  41	  64
  41	  65
  41	  66
  41	  67
  41	  73
  41	  75
  41	  76
  41	  78
  41	  80
  41	  81
  41	  82
  41	  84
  41	  88
  41	  93
  41	  95
  41	  96
  41	  98
  41	 102
  41	 103
  41	 105
  41	 107
  41	 108
  41	 109
  41	 111
  41	 112
  41	 114
  41	 116
  41	 117
  41	 118
  42	  43
  42	  45
  42	  48
  42	  51
  42	  52
  42	  54
  42	  55
  42	  57
  42	  58
  42	  59
  42	  61
  42	  63
  42	  64
  42	  66
  42	  70
  42	  71
  42	  74
  42	  75
  42	  76
  42	  77
  42	  81
  42	  82
  42	  84
  42	  85
  42	  90
  42	  93
  42	  96
  42	  97
  42	  98
  42	  99
  42	 100
  42	 101
  42	 105
  42	 106
  42	 108
  42	 109
  42	 110
  42	 111
  42	 112
  42	 115
  42	 116
  42	 118
  43	  47
  43	  48
  43	  50
  43	  53
  43	  55
  43	  56
  43	  57
  43	  60
  43	  65
  43	  68
  43	  70
  43	  71
  43	  72
  43	  73
  43	  76
  43	  77
  43	  80
  43	  81
  43	  82
  43	  84
  43	  85
  43	  91
  43	  98
  43	  99
  43	 100
  43	 101
  43	 102
  43	 103
  43	 104
  43	 105
  43	 106
  43	 107
  43	 108
  43	 110
  43	 113
  43	 114
  43	 115
  43	 116
  43	 119
  44	  47
  44	  50
  44	  52
  44	  53
  44	  54
  44	  57
  44	  58
  44	  60
  44	  62
  44	  66
  44	  67
  44	  69
  44	  70
  44	  71
  44	  74
  44	  75
  44	  76
  44	  77
  44	  80
  44	  82
  44	  83
  44	  84
  44	  85
  44	  89
  44	  90
  44	  91
  44	  92
  44	  94
  44	  96
  44	  97
  44	  98
  44	 100
  44	 101
  44	 106
  44	 108
  44	 110
  44	 112
  44	 114
  44	 117
  44	 118
  44	 119
  45	  47
  45	  50
  45	  52
  45	  53
  45	  54
  45	  56
  45	  57
  45	  60
  45	  61
  45	  63
  45	  64
  45	  65
  45	  66
  45	  67
  45	  69
  45	  72
  45	  73
  45	  76
  45	  79
  45	  84
  45	  86
  45	  88
  45	  92
  45	  93
  45	  98
  45	  99
  45	 102
  45	 104
  45	 107
  45	 108
  45	 110
  45	 111
  45	 115
  46	  48
  46	  50
  46	  52
  46	  53
  46	  54
  46	  63
  46	  64
  46	  65
  46	  66
  46	  67
  46	  68
  46	  69
  46	  70
  46	  73
  46	  74
  46	  77
  46	  79
  46	  80
  46	  81
  46	  82
  46	  83
  46	  86
  46	  87
  46	  89
  46	  94
  46	  99
  46	 100
  46	 101
  46	 104
  46	 105
  46	 109
  46	 111
  46	 116
  46	 117
  46	 118
  47	  48
  47	  49
  47	  50
  47	  53
  47	  54
  47	  58
  47	  59
  47	  60
  47	  62
  47	  65
  47	  66
  47	  67
  47	  68
  47	  69
  47	  72
  47	  73
  47	  75
  47	  76
  47	  77
  47	  81
  47	  82
  47	  84
  47	  87
  47	  88
  47	  89
  47	  90
  47	  91
  47	  94
  47	  95
  47	  97
  47	  99
  47	 100
  47	 101
  47	 102
  47	 103
  47	 104
  47	 105
  47	 109
  47	 110
  47	 112
  47	 114
  47	 119
  48	  49
  48	  55
  48	  56
  48	  57
  48	  62
  48	  64
  48	  65
  48	  66
  48	  69
  48	  71
  48	  72
  48	  76
  48	  83
  48	  84
  48	  88
  48	  89
  48	  90
  48	  91
  48	  94
  48	  96
  48	  97
  48	  98
  48	  99
  48	 100
  48	 102
  48	 105
  48	 106
  48	 107
  48	 108
  48	 112
  48	 113
  48	 118
  48	 119
  49	  50
  49	  51
  49	  52
  49	  53
  49	  56
  49	  58
  49	  59
  49	  60
  49	  63
  49	  67
  49	  68
  49	  69
  49	  74
  49	  76
  49	  77
  49	  78
  49	  81
  49	  85
  49	  86
  49	  90
  49	  92
  49	  94
  49	  95
  49	  97
  49	  98
  49	  99
  49	 100
  49	 103
  49	 108
  49	 109
  49	 110
  49	 111
  49	 112
  49	 114
  49	 119
  50	  51
  50	  52
  50	  53
  50	  57
  50	  60
  50	  62
  50	  65
  50	  67
  50	  68
  50	  72
  50	  73
  50	  74
  50	  75
  50	  76
  50	  79
  50	  80
  50	  81
  50	  82
  50	  86
  50	  90
  50	  91
  50	  96
  50	  98
  50	  99
  50	 107
  50	 108
  50	 111
  50	 115
  50	 116
  50	 118
  50	 119
  51	  52
  51	  55
  51	  58
  51	  61
  51	  64
  51	  68
  51	  70
  51	  77
  51	  80
  51	  82
  51	  83
  51	  85
  51	  87
  51	  88
  51	  89
  51	  91
  51	  93
  51	  94
  51	  96
  51	  97
  51	 100
  51	 101
  51	 102
  51	 104
  51	 106
  51	 108
  51	 109
  51	 112
  51	 114
  51	 115
  51	 117
  52	  53
  52	  54
  52	  55
  52	  56
  52	  62
  52	  65
  52	  66
  52	  67
  52	  69
  52	  70
  52	  71
  52	  72
  52	  74
  52	  76
  52	  77
  52	  78
  52	  82
  52	  83
  52	  84
  52	  85
  52	  86
  52	  88
  52	  89
  52	  90
  52	  92
  52	  94
  52	  95
  52	  98
  52	 100
  52	 102
  52	 103
  52	 106
  52	 107
  52	 108
  52	 109
  52	 113
  52	 114
  52	 115
  52	 117
  52	 118
  53	  54
  53	  55
  53	  56
  53	  57
  53	  60
  53	  62
  53	  66
  53	  68
  53	  71
  53	  72
  53	  73
  53	  75
  53	  76
  53	  80
  53	  81
  53	  82
  53	  83
  53	  86
  53	  87
  53	  94
  53	  95
  53	  97
  53	 101
  53	 102
  53	 103
  53	 106
  53	 107
  53	 108
  53	 109
  53	 112
  53	 113
  53	 114
  54	  55
  54	  57
  54	  60
  54	  61
  54	  69
  54	  70
  54	  72
  54	  75
  54	  76
  54	  79
  54	  87
  54	  88
  54	  92
  54	  94
  54	  95
  54	  97
  54	  98
  54	  99
  54	 100
  54	 101
  54	 102
  54	 103
  54	 106
  54	 111
  54	 113
  54	 114
  54	 115
  54	 116
  54	 117
  54	 119
  55	  56
  55	  57
  55	  61
  55	  62
  55	  63
  55	  66
  55	  69
  55	  70
  55	  71
  55	  72
  55	  73
  55	  75
  55	  76
  55	  77
  55	  82
  55	  85
  55	  88
  55	  89
  55	  90
  55	  91
  55	  98
  55	 100
  55	 101
  55	 103
  55	 104
  55	 106
  55	 107
  55	 113
  55	 114
  55	 115
  55	 116
  55	 118
  55	 119
  56	  57
  56	  63
  56	  65
  56	  67
  56	  73
  56	  74
  56	  75
  56	  77
  56	  80
  56	  81
  56	  82
  56	  83
  56	  85
  56	  88
  56	  89
  56	  90
  56	  94
  56	  99
  56	 102
  56	 104
  56	 105
  56	 106
  56	 107
  56	 111
  56	 116
  56	 117
  56	 118
  56	 119
  57	  58
  57	  60
  57	  65
  57	  66
  57	  68
  57	  71
  57	  74
  57	  75
  57	  79
  57	  80
  57	  81
  57	  83
  57	  86
  57	  87
  57	  88
  57	  89
  57	  90
  57	  91
  57	  93
  57	  94
  57	  95
  57	  96
  57	  98
  57	 100
  57	 102
  57	 103
  57	 104
  57	 106
  57	 108
  57	 109
  57	 110
  57	 111
  57	 112
  57	 113
  57	 114
  57	 116
  57	 117
  57	 118
  58	  63
  58	  64
  58	  65
  58	  66
  58	  67
  58	  68
  58	  74
  58	  76
  58	  77
  58	  79
  58	  82
  58	  84
  58	  85
  58	  86
  58	  87
  58	  89
  58	  90
  58	  92
  58	  93
  58	  94
  58	  96
  58	  98
  58	 100
  58	 103
  58	 106
  58	 110
  58	 112
  58	 113
  58	 115
  59	  60
  59	  61
  59	  63
  59	  64
  59	  65
  59	  66
  59	  70
  59	  72
  59	  73
  59	  75
  59	  78
  59	  80
  59	  81
  59	  82
  59	  83
  59	  86
  59	  87
  59	  90
  59	  91
  59	  92
  59	  93
  59	  95
  59	  96
  59	  98
  59	 101
  59	 102
  59	 103
  59	 105
  59	 113
  59	 114
  59	 118
  60	  61
  60	  64
  60	  66
  60	  71
  60	  73
  60	  74
  60	  75
  60	  76
  60	  80
  60	  81
  60	  83
  60	  84
  60	  87
  60	  88
  60	  89
  60	  91
  60	  92
  60	  94
  60	  97
  60	  98
  60	 100
  60	 102
  60	 103
  60	 104
  60	 106
  60	 107
  60	 110
  60	 112
  60	 115
  61	  64
  61	  65
  61	  68
  61	  71
  61	  72
  61	  74
  61	  75
  61	  81
  61	  83
  61	  84
  61	  86
  61	  87
  61	  88
  61	  89
  61	  90
  61	  92
  61	  93
  61	  94
  61	  95
  61	  98
  61	  99
  61	 111
  61	 115
  61	 118
  62	  66
  62	  67
  62	  68
  62	  70
  62	  72
  62	  74
  62	  75
  62	  78
  62	  80
  62	  81
  62	  82
  62	  85
  62	  86
  62	  88
  62	  89
  62	  90
  62	  91
  62	  92
  62	  93
  62	  96
  62	  99
  62	 101
  62	 102
  62	 104
  62	 105
  62	 106
  62	 107
  62	 109
  62	 110
  62	 111
  62	 113
  62	 116
  62	 117
  62	 118
  62	 119
  63	  64
  63	  65
  63	  66
  63	  71
  63	  74
  63	  76
  63	  77
  63	  79
  63	  81
  63	  85
  63	  86
  63	  87
  63	  91
  63	  94
  63	  95
  63	  97
  63	  99
  63	 100
  63	 103
  63	 104
  63	 105
  63	 106
  63	 107
  63	 108
  63	 110
  63	 113
  63	 114
  63	 116
  63	 118
  63	 119
  64	  67
  64	  68
  64	  69
  64	  70
  64	  72
  64	  74
  64	  75
  64	  77
  64	  79
  64	  81
  64	  83
  64	  86
  64	  88
  64	  91
  64	  92
  64	  94
  64	  98
  64	  99
  64	 101
  64	 103
  64	 110
  64	 112
  64	 113
  64	 114
  64	 115
  64	 116
  64	 117
  64	 119
  65	  66
  65	  67
  65	  68
  65	  71
  65	  72
  65	  74
  65	  76
  65	  77
  65	  78
  65	  82
  65	  83
  65	  86
  65	  88
  65	  89
  65	  90
  65	  91
  65	  92
  65	  94
  65	  96
  65	  97
  65	  98
  65	 101
  65	 103
  65	 109
  65	 111
  65	 113
  65	 117
  66	  74
  66	  76
  66	  77
  66	  82
  66	  83
  66	  84
  66	  87
  66	  89
  66	  90
  66	  94
  66	  95
  66	  96
  66	  97
  66	 100
  66	 103
  66	 104
  66	 105
  66	 106
  66	 109
  66	 110
  66	 114
  66	 115
  66	 116
  66	 117
  66	 119
  67	  68
  67	  73
  67	  75
  67	  76
  67	  78
  67	  80
  67	  84
  67	  86
  67	  88
  67	  89
  67	  93
  67	  94
  67	  95
  67	  97
  67	  99
  67	 104
  67	 106
  67	 108
  67	 109
  67	 110
  67	 111
  67	 112
  67	 113
  67	 114
  67	 116
  67	 119
  68	  70
  68	  71
  68	  72
  68	  73
  68	  74
  68	  75
  68	  78
  68	  81
  68	  82
  68	  83
  68	  86
  68	  88
  68	  89
  68	  94
  68	  97
  68	  98
  68	 102
  68	 106
  68	 109
  68	 110
  68	 112
  68	 113
  68	 116
  68	 119
  69	  75
  69	  78
  69	  79
  69	  80
  69	  81
  69	  83
  69	  88
  69	  89
  69	  90
  69	  92
  69	  95
  69	  96
  69	  98
  69	  99
  69	 102
  69	 104
  69	 105
  69	 107
  69	 108
  69	 109
  69	 111
  69	 112
  69	 116
  69	 118
  69	 119
  70	  72
  70	  75
  70	  76
  70	  78
  70	  79
  70	  80
  70	  81
  70	  83
  70	  85
  70	  86
  70	  89
  70	  91
  70	  92
  70	  95
  70	  96
  70	  98
  70	 101
  70	 105
  70	 106
  70	 107
  70	 108
  70	 109
  70	 110
  70	 111
  70	 112
  70	 118
  70	 119
  71	  72
  71	  73
  71	  74
  71	  75
  71	  77
  71	  79
  71	  80
  71	  82
  71	  85
  71	  86
  71	  87
  71	  89
  71	  92
  71	  94
  71	  95
  71	  96
  71	  97
  71	 100
  71	 101
  71	 103
  71	 104
  71	 105
  71	 106
  71	 109
  71	 111
  71	 114
  71	 115
  71	 118
  72	  74
  72	  75
  72	  76
  72	  77
  72	  78
  72	  81
  72	  83
  72	  86
  72	  87
  72	  89
  72	  90
  72	  92
  72	  95
  72	  97
  72	  98
  72	  99
  72	 102
  72	 104
  72	 105
  72	 113
  72	 114
  72	 116
  73	  74
  73	  75
  73	  79
  73	  80
  73	  81
  73	  82
  73	  85
  73	  86
  73	  87
  73	  88
  73	  89
  73	  91
  73	  92
  73	  93
  73	  94
  73	  95
  73	  96
  73	  98
  73	  99
  73	 101
  73	 104
  73	 105
  73	 106
  73	 111
  73	 112
  73	 117
  73	 118
  74	  75
  74	  76
  74	  79
  74	  81
  74	  82
  74	  84
  74	  86
  74	  92
  74	  93
  74	  94
  74	  97
  74	  98
  74	  99
  74	 100
  74	 101
  74	 102
  74	 106
  74	 107
  74	 110
  74	 111
  74	 112
  74	 114
  74	 115
  74	 118
  75	  77
  75	  79
  75	  81
  75	  84
  75	  86
  75	  88
  75	  89
  75	  90
  75	  91
  75	  93
  75	  95
  75	  97
  75	  98
  75	 100
  75	 101
  75	 102
  75	 104
  75	 105
  75	 106
  75	 111
  75	 112
  75	 113
  75	 114
  75	 115
  75	 116
  76	  78
  76	  82
  76	  83
  76	  86
  76	  89
  76	  91
  76	  92
  76	  95
  76	  97
  76	  98
  76	 101
  76	 102
  76	 106
  76	 108
  76	 110
  76	 113
  77	  82
  77	  83
  77	  85
  77	  88
  77	  92
  77	  95
  77	  96
  77	  97
  77	  98
  77	 100
  77	 101
  77	 103
  77	 104
  77	 105
  77	 106
  77	 108
  77	 109
  77	 112
  77	 113
  77	 114
  77	 118
  77	 119
  78	  81
  78	  82
  78	  84
  78	  85
  78	  87
  78	  89
  78	  93
  78	  95
  78	  96
  78	  99
  78	 100
  78	 101
  78	 102
  78	 103
  78	 106
  78	 107
  78	 108
  78	 109
  78	 115
  78	 116
  78	 118
  78	 119
  79	  80
  79	  81
  79	  84
  79	  85
  79	  86
  79	  87
  79	  89
  79	  93
  79	  97
  79	  98
  79	 101
  79	 103
  79	 104
  79	 110
  79	 112
  79	 114
  79	 115
  79	 116
  79	 117
  79	 118
  80	  82
  80	  83
  80	  86
  80	  89
  80	  90
  80	  92
  80	  95
  80	  96
  80	  97
  80	  98
  80	 101
  80	 105
  80	 107
  80	 109
  80	 111
  80	 116
  80	 117
  80	 118
  80	 119
  81	  82
  81	  84
  81	  86
  81	  87
  81	  89
  81	  90
  81	  92
  81	  93
  81	  94
  81	  97
  81	  99
  81	 103
  81	 104
  81	 105
  81	 106
  81	 107
  81	 110
  81	 111
  81	 114
  81	 116
  81	 117
  82	  83
  82	  84
  82	  89
  82	  91
  82	  95
  82	  97
  82	  98
  82	  99
  82	 106
  82	 107
  82	 108
  82	 109
  82	 110
  82	 111
  82	 112
  82	 114
  82	 116
  82	 118
  82	 119
  83	  93
  83	  96
  83	  97
  83	  98
  83	 102
  83	 104
  83	 105
  83	 106
  83	 109
  83	 110
  83	 112
  83	 115
  83	 118
  83	 119
  84	  86
  84	  87
  84	  88
  84	  89
  84	  91
  84	  94
  84	  95
  84	  97
  84	 100
  84	 102
  84	 104
  84	 105
  84	 107
  84	 109
  84	 111
  84	 114
  84	 116
  84	 118
  85	  86
  85	  87
  85	  88
  85	  89
  85	  94
  85	  98
  85	  99
  85	 100
  85	 103
  85	 104
  85	 106
  85	 107
  85	 108
  85	 109
  85	 111
  85	 114
  85	 116
  85	 117
  85	 119
  86	  88
  86	  89
  86	  91
  86	  94
  86	  95
  86	  97
  86	  98
  86	 100
  86	 102
  86	 103
  86	 109
  86	 110
  86	 112
  86	 116
  86	 117
  87	  89
  87	  90
  87	  94
  87	  95
  87	  99
  87	 100
  87	 101
  87	 102
  87	 103
  87	 105
  87	 107
  87	 108
  87	 109
  87	 110
  87	 111
  87	 112
  87	 113
  87	 115
  87	 116
  87	 117
  87	 119
  88	  89
  88	  90
  88	  93
  88	  94
  88	  96
  88	  99
  88	 101
  88	 103
  88	 104
  88	 105
  88	 109
  88	 111
  88	 113
  88	 114
  88	 115
  88	 117
  89	  90
  89	  91
  89	  92
  89	  93
  89	  94
  89	  95
  89	  96
  89	 101
  89	 102
  89	 104
  89	 108
  89	 110
  89	 114
  89	 115
  89	 117
  89	 118
  90	  91
  90	  92
  90	  93
  90	  94
  90	  96
  90	  97
  90	  99
  90	 100
  90	 101
  90	 102
  90	 103
  90	 108
  90	 111
  90	 112
  90	 113
  90	 115
  90	 116
  90	 117
  90	 118
  90	 119
  91	  92
  91	  96
  91	  99
  91	 101
  91	 103
  91	 105
  91	 111
  91	 112
  91	 113
  91	 114
  91	 116
  92	  96
  92	  98
  92	 107
  92	 108
  92	 109
  92	 110
  92	 111
  92	 114
  92	 117
  92	 119
  93	  94
  93	  95
  93	  96
  93	  98
  93	 102
  93	 104
  93	 105
  93	 106
  93	 108
  93	 109
  93	 111
  93	 112
  93	 113
  93	 116
  93	 117
  93	 119
  94	  96
  94	  97
  94	  98
  94	  99
  94	 100
  94	 101
  94	 105
  94	 107
  94	 111
  94	 114
  94	 115
  94	 117
  94	 118
  95	  96
  95	  99
  95	 100
  95	 101
  95	 102
  95	 104
  95	 105
  95	 107
  95	 108
  95	 109
  95	 112
  95	 114
  95	 119
  96	  99
  96	 100
  96	 101
  96	 102
  96	 106
  96	 108
  96	 110
  96	 115
  96	 117
  97	  98
  97	  99
  97	 100
  97	 101
  97	 102
  97	 103
  97	 105
  97	 106
  97	 107
  97	 108
  97	 109
  97	 112
  97	 116
  97	 118
  98	  99
  98	 104
  98	 106
  98	 107
  98	 108
  98	 109
  98	 110
  98	 111
  98	 112
  98	 113
  98	 114
  98	 115
  98	 116
  98	 117
  98	 118
  99	 108
  99	 109
  99	 110
  99	 114
  99	 115
  99	 117
 100	 102
 100	 105
 100	 107
 100	 108
 100	 109
 100	 112
 100	 113
 100	 114
 100	 116
 101	 104
 101	 105
 101	 107
 101	 109
 101	 112
 101	 113
 101	 114
 101	 117
 101	 119
 102	 103
 102	 104
 102	 105
 102	 106
 102	 109
 102	 114
 102	 115
 102	 118
 103	 104
 103	 107
 103	 108
 103	 110
 103	 111
 103	 112
 103	 113
 103	 114
 104	 109
 104	 110
 104	 111
 104	 112
 104	 113
 104	 115
 104	 116
 105	 106
 105	 107
 105	 108
 105	 113
 105	 115
 105	 118
 105	 119
 106	 107
 106	 110
 106	 111
 106	 117
 106	 118
 107	 108
 107	 112
 107	 113
 107	 114
 107	 115
 107	 116
 107	 117
 107	 119
 108	 109
 108	 110
 108	 111
 108	 114
 108	 116
 108	 118
 108	 119
 109	 110
 109	 112
 109	 117
 109	 118
 109	 119
 110	 117
 110	 118
 111	 113
 111	 115
 111	 117
 111	 119
 112	 113
 112	 114
 112	 116
 112	 117
 112	 118
 113	 115
 113	 117
 113	 119
 114	 116
 114	 118
 115	 118
 115	 119
 116	 118
 118	 119
;
